50 1828
507 438 795 141 597 816 540 987 945 387 618 732 150 411 291 693 243 267 645 114 948 432 177 441 525 213 579 870 333 993 777 144 753 39 774 573 765 120 402 306 303 678 996 402 903 36 552 732 879 465 
505 437 795 139 596 816 540 986 945 385 618 730 150 409 290 691 241 265 645 112 948 430 175 439 524 213 579 870 333 991 776 143 751 38 774 572 764 118 401 306 303 676 996 402 901 34 551 731 879 464 
